u120_15
150 120 48 53
81 0
61 0
40 1
64 1
88 2
43 1
99 3
53 2
98 4
70 5
38 3
75 5
23 4
80 6
72 7
97 8
89 9
80 10
38 6
30 6
34 7
22 4
61 10
48 8
22 7
28 9
99 11
55 12
89 12
67 13
24 9
27 11
91 14
90 15
20 7
36 13
77 16
44 13
24 14
60 16
96 17
83 18
53 15
76 19
27 14
91 20
58 18
78 21
23 11
31 17
99 22
42 19
64 21
39 20
73 23
43 22
36 23
76 24
97 25
41 24
90 26
24 19
82 27
55 26
93 28
63 27
61 29
39 23
73 29
54 28
77 30
100 31
46 25
69 30
74 32
41 31
32 24
56 32
68 33
98 34
61 33
28 34
21 17
30 35
47 35
43 35
54 36
33 36
31 36
38 37
49 37
40 37
44 38
93 38
20 33
81 39
71 40
36 39
71 40
36 41
42 41
56 41
85 42
23 34
86 43
88 44
95 45
61 42
41 43
34 44
74 46
37 45
82 47
30 36
98 48
86 49
37 46
93 50
100 51
69 52